(set-info :smt-lib-version 2.6)
(set-logic QF_LIA)
(set-info :category "industrial")
(set-info :status sat)
(declare-fun x0 () Int)
(declare-fun x1 () Int)
(declare-fun x10 () Int)
(declare-fun x11 () Int)
(declare-fun x12 () Int)
(declare-fun x13 () Int)
(declare-fun x14 () Int)
(declare-fun x15 () Int)
(declare-fun x16 () Int)
(declare-fun x17 () Int)
(declare-fun x18 () Int)
(declare-fun x19 () Int)
(declare-fun x2 () Int)
(declare-fun x20 () Int)
(declare-fun x21 () Int)
(declare-fun x22 () Int)
(declare-fun x23 () Int)
(declare-fun x24 () Int)
(declare-fun x25 () Int)
(declare-fun x26 () Int)
(declare-fun x27 () Int)
(declare-fun x28 () Int)
(declare-fun x29 () Int)
(declare-fun x3 () Int)
(declare-fun x30 () Int)
(declare-fun x31 () Int)
(declare-fun x32 () Int)
(declare-fun x33 () Int)
(declare-fun x34 () Int)
(declare-fun x35 () Int)
(declare-fun x36 () Int)
(declare-fun x37 () Int)
(declare-fun x38 () Int)
(declare-fun x39 () Int)
(declare-fun x4 () Int)
(declare-fun x40 () Int)
(declare-fun x41 () Int)
(declare-fun x42 () Int)
(declare-fun x43 () Int)
(declare-fun x44 () Int)
(declare-fun x5 () Int)
(declare-fun x6 () Int)
(declare-fun x7 () Int)
(declare-fun x8 () Int)
(declare-fun x9 () Int)
(assert (let ((?v_0 (* 0 x1)) (?v_16 (* 0 x10)) (?v_45 (* 1 x11)) (?v_17 (* 0 x12)) (?v_1 (* 0 x14)) (?v_96 (* 2 x15)) (?v_7 (* 0 x17)) (?v_8 (* 0 x18)) (?v_60 (* 0 x19)) (?v_9 (* 0 x2)) (?v_18 (* 0 x20)) (?v_2 (* 0 x23)) (?v_79 (* 1 x27)) (?v_21 (* 1 x29)) (?v_81 (* 1 x33)) (?v_108 (* 2 x24)) (?v_66 (* 0 x35)) (?v_3 (* 1 x37)) (?v_11 (* 0 x38)) (?v_23 (* 0 x39)) (?v_22 (* 0 x40)) (?v_56 (* 0 x5)) (?v_13 (* 1 x8)) (?v_15 (* 0 x0)) (?v_131 (* 2 x10)) (?v_4 (* 0 x13)) (?v_5 (* 1 x12)) (?v_25 (* 1 x19)) (?v_73 (* 1 x2)) (?v_38 (* 1 x20)) (?v_61 (* 1 x21)) (?v_39 (* 0 x25)) (?v_86 (* 1 x26)) (?v_10 (* 0 x33)) (?v_63 (* 1 x28)) (?v_43 (* 1 x32)) (?v_98 (* 1 x34)) (?v_24 (* 0 x42)) (?v_57 (* 0 x8)) (?v_12 (* 1 x3)) (?v_67 (* 1 x43)) (?v_14 (* 1 x9)) (?v_113 (* 2 x6))) (let ((?v_136 (+ ?v_14 ?v_113)) (?v_127 (* 1 x1)) (?v_36 (* 1 x10)) (?v_19 (* 0 x21)) (?v_28 (* 0 x22)) (?v_29 (* 0 x24)) (?v_40 (* 0 x26)) (?v_87 (* 0 x27)) (?v_42 (* 0 x34)) (?v_30 (* 0 x36)) (?v_78 (* 1 x23)) (?v_31 (* 0 x41)) (?v_32 (* 1 x39)) (?v_69 (* 0 x7)) (?v_68 (* 1 x6)) (?v_37 (* 0 x11)) (?v_52 (* 0 x32)) (?v_102 (* 1 x38)) (?v_34 (* 0 x43)) (?v_44 (* 0 x6)) (?v_106 (* 1 x7))) (let ((?v_94 (+ ?v_34 (+ ?v_44 ?v_106))) (?v_58 (* 1 x0)) (?v_119 (* 1 x18)) (?v_51 (* 0 x30)) (?v_89 (* 2 x40)) (?v_55 (* 0 x4)) (?v_133 (* 1 x13)) (?v_128 (* 1 x15)) (?v_92 (* 0 x31)) (?v_139 (* 2 x33)) (?v_76 (* 1 x35)) (?v_83 (* 1 x41)) (?v_70 (* 2 x4)) (?v_85 (* 1 x17)) (?v_59 (* 0 x16)) (?v_75 (* 0 x28)) (?v_62 (* 0 x29)) (?v_77 (* 1 x40)) (?v_107 (* 0 x15)) (?v_103 (* 0 x44)) (?v_114 (* 2 x1)) (?v_97 (* 1 x22)) (?v_82 (* 0 x37)) (?v_110 (* 0 x9)) (?v_93 (* 1 x30)) (?v_122 (* 1 x4)) (?v_104 (* 1 x42)) (?v_109 (* 0 x3)) (?v_125 (* 2 x16)) (?v_115 (* 1 x36)) (?v_140 (* 1 x24)) (?v_130 (* 1 x5)) (?v_135 (* 1 x16)) (?v_20 (* (- 1) x28)) (?v_6 (* (- 1) x16)) (?v_65 (* (- 1) x38)) (?v_54 (* (- 1) x7)) (?v_100 (* (- 1) x0)) (?v_71 (* (- 1) x11)) (?v_116 (* (- 1) x14)) (?v_124 (* (- 1) x29)) (?v_64 (* (- 1) x32)) (?v_26 (* (- 1) x37)) (?v_33 (* (- 1) x42)) (?v_101 (* (- 1) x15)) (?v_49 (* (- 1) x27)) (?v_41 (* (- 1) x3)) (?v_80 (* (- 1) x31)) (?v_50 (* (- 1) x34)) (?v_27 (* (- 1) x9)) (?v_53 (* (- 1) x41)) (?v_99 (* (- 1) x10)) (?v_90 (* (- 2) x15)) (?v_46 (* (- 1) x12)) (?v_35 (* (- 1) x17)) (?v_48 (* (- 1) x25)) (?v_126 (* (- 1) x26)) (?v_84 (* (- 1) x6)) (?v_138 (* (- 1) x8)) (?v_72 (* (- 1) x21)) (?v_47 (* (- 1) x22)) (?v_74 (* (- 1) x36)) (?v_120 (* (- 1) x24)) (?v_91 (* (- 1) x13)) (?v_123 (* (- 1) x23)) (?v_137 (* (- 1) x1)) (?v_88 (* (- 1) x44)) (?v_95 (* (- 1) x19)) (?v_118 (* (- 1) x35)) (?v_105 (* (- 1) x5)) (?v_111 (* (- 1) x18)) (?v_121 (* (- 1) x30)) (?v_129 (* (- 1) x43)) (?v_132 (* (- 2) x11)) (?v_112 (* (- 1) x33)) (?v_117 (* (- 1) x40)) (?v_134 (* (- 1) x39))) (and (<= (+ ?v_0 (+ ?v_16 (+ ?v_45 (+ ?v_17 (+ ?v_1 (+ ?v_96 (+ (* (- 2) x16) (+ ?v_7 (+ ?v_8 (+ ?v_60 (+ ?v_9 (+ ?v_18 (+ ?v_2 (+ ?v_79 (+ ?v_21 (+ ?v_81 (+ ?v_108 (+ ?v_20 (+ (* 2 x34) (+ ?v_66 (+ ?v_3 (+ ?v_11 (+ ?v_23 (+ ?v_22 (+ ?v_56 ?v_13))))))))))))))))))))))))) 1) (<= (+ ?v_15 (+ ?v_0 (+ ?v_131 (+ ?v_4 (+ ?v_1 (+ ?v_5 (+ ?v_6 (+ ?v_25 (+ ?v_73 (+ ?v_38 (+ ?v_61 (+ ?v_2 (+ ?v_39 (+ ?v_86 (+ ?v_10 (+ ?v_65 (+ ?v_63 (+ (* 2 x29) (+ ?v_43 (+ ?v_98 (+ ?v_3 (+ ?v_54 (+ ?v_24 (+ ?v_57 (+ ?v_12 (+ ?v_67 ?v_136)))))))))))))))))))))))))) (- 1)) (<= (+ (* (- 2) x25) (+ ?v_100 (+ ?v_71 (+ ?v_127 (+ ?v_36 (+ ?v_4 (+ ?v_116 (+ ?v_5 (+ ?v_6 (+ ?v_7 (+ ?v_8 (+ ?v_9 (+ ?v_124 (+ ?v_19 (+ ?v_64 (+ ?v_26 (+ ?v_28 (+ ?v_29 (+ ?v_40 (+ ?v_87 (+ ?v_10 (+ ?v_42 (+ ?v_30 (+ ?v_78 (+ ?v_11 (+ ?v_31 (+ ?v_32 (+ ?v_33 (+ ?v_69 (+ ?v_12 (+ ?v_68 (+ ?v_13 ?v_14)))))))))))))))))))))))))))))))) 0) (<= (+ ?v_101 (+ ?v_15 (+ ?v_16 (+ ?v_37 (+ ?v_17 (+ ?v_4 (+ ?v_1 (+ ?v_6 (+ (* (- 1) x2) (+ ?v_18 (+ ?v_49 (+ ?v_19 (+ (* 1 x25) (+ ?v_20 (+ ?v_21 (+ ?v_41 (+ ?v_80 (+ ?v_10 (+ ?v_50 (+ ?v_27 (+ ?v_52 (+ ?v_22 (+ ?v_53 (+ ?v_102 (+ ?v_23 (+ ?v_24 ?v_94)))))))))))))))))))))))))) 0) (<= (+ ?v_99 (+ ?v_0 (+ ?v_1 (+ ?v_90 (+ ?v_58 (+ ?v_46 (+ ?v_6 (+ ?v_35 (+ ?v_119 (+ ?v_25 (+ ?v_48 (+ ?v_126 (+ ?v_26 (+ ?v_27 (+ ?v_28 (+ ?v_2 (+ ?v_29 (+ ?v_51 (+ ?v_10 (+ ?v_30 (+ ?v_89 (+ ?v_31 (+ ?v_32 (+ ?v_33 (+ ?v_34 (+ ?v_84 (+ ?v_138 ?v_55))))))))))))))))))))))))))) 1) (<= (+ (* (- 2) x27) (+ ?v_35 (+ ?v_0 (+ ?v_36 (+ ?v_37 (+ ?v_72 (+ ?v_133 (+ ?v_128 (+ ?v_38 (+ ?v_47 (+ ?v_29 (+ ?v_39 (+ ?v_40 (+ ?v_20 (+ ?v_21 (+ ?v_41 (+ ?v_92 (+ ?v_42 (+ ?v_43 (+ ?v_139 (+ ?v_3 (+ ?v_11 (+ ?v_76 (+ ?v_23 (+ ?v_34 (+ ?v_83 (+ ?v_44 (+ ?v_13 ?v_70)))))))))))))))))))))))))))) (- 1)) (<= (+ ?v_0 (+ ?v_16 (+ ?v_45 (+ ?v_46 (+ ?v_8 (+ ?v_85 (+ ?v_19 (+ ?v_47 (+ ?v_48 (+ ?v_49 (+ ?v_59 (+ ?v_2 (+ ?v_29 (+ ?v_75 (+ ?v_62 (+ ?v_41 (+ ?v_50 (+ ?v_74 (+ ?v_51 (+ ?v_52 (+ ?v_10 (+ ?v_3 (+ ?v_77 (+ ?v_53 (+ ?v_54 (+ ?v_55 (+ ?v_24 (+ ?v_56 (+ ?v_44 ?v_57))))))))))))))))))))))))))))) (- 1)) (<= (+ ?v_120 (+ ?v_58 (+ ?v_17 (+ ?v_4 (+ ?v_1 (+ ?v_107 (+ ?v_59 (+ ?v_60 (+ ?v_61 (+ ?v_2 (+ ?v_39 (+ ?v_62 (+ ?v_63 (+ (* 2 x22) (+ ?v_41 (+ ?v_51 (+ ?v_64 (+ ?v_26 (+ ?v_65 (+ ?v_53 (+ ?v_66 (+ ?v_23 (+ ?v_22 (+ ?v_24 (+ ?v_103 (+ ?v_67 (+ ?v_68 (+ ?v_69 (+ ?v_57 (+ ?v_70 ?v_56)))))))))))))))))))))))))))))) 0) (<= (+ ?v_71 (+ ?v_114 (+ ?v_91 (+ ?v_72 (+ ?v_1 (+ (* 2 x17) (+ (* 2 x18) (+ ?v_60 (+ ?v_73 (+ ?v_123 (+ ?v_74 (+ ?v_59 (+ ?v_39 (+ ?v_40 (+ ?v_75 (+ ?v_97 (+ ?v_41 (+ ?v_52 (+ ?v_42 (+ ?v_82 (+ ?v_76 (+ ?v_23 (+ ?v_55 (+ ?v_77 (+ ?v_31 (+ ?v_24 (+ ?v_56 (+ ?v_69 ?v_110)))))))))))))))))))))))))))) 1) (<= (+ (* (- 3) x17) (+ ?v_137 (+ ?v_71 (+ ?v_15 (+ ?v_36 (+ ?v_17 (+ ?v_1 (+ ?v_19 (+ ?v_25 (+ ?v_38 (+ ?v_78 (+ ?v_79 (+ ?v_41 (+ ?v_80 (+ ?v_74 (+ ?v_51 (+ ?v_81 (+ ?v_82 (+ ?v_32 (+ ?v_83 (+ ?v_33 (+ ?v_88 (+ ?v_84 (+ ?v_55 ?v_57)))))))))))))))))))))))) 0) (<= (+ ?v_95 (+ ?v_4 (+ ?v_1 (+ ?v_85 (+ ?v_9 (+ ?v_61 (+ ?v_47 (+ ?v_86 (+ ?v_87 (+ ?v_75 (+ (* (- 2) x8) (+ ?v_59 (+ ?v_41 (+ ?v_50 (+ ?v_93 (+ ?v_118 (+ ?v_30 (+ ?v_65 (+ ?v_88 (+ ?v_23 (+ ?v_89 (+ ?v_44 (+ ?v_69 (+ ?v_122 (+ ?v_104 (+ ?v_105 ?v_14)))))))))))))))))))))))))) 0) (<= (+ ?v_37 (+ ?v_90 (+ ?v_46 (+ ?v_91 (+ ?v_35 (+ ?v_8 (+ ?v_9 (+ ?v_38 (+ ?v_61 (+ ?v_48 (+ ?v_1 (+ ?v_87 (+ ?v_20 (+ ?v_50 (+ ?v_74 (+ ?v_33 (+ ?v_88 (+ ?v_59 (+ ?v_2 (+ ?v_21 (+ ?v_109 (+ ?v_92 (+ ?v_93 (+ ?v_81 (+ ?v_66 (+ ?v_3 (+ ?v_11 (+ ?v_31 ?v_94)))))))))))))))))))))))))))) 0) (<= (+ ?v_111 (+ ?v_95 (+ ?v_49 (+ ?v_15 (+ ?v_0 (+ ?v_37 (+ ?v_96 (+ ?v_20 (+ ?v_121 (+ ?v_26 (+ ?v_53 (+ ?v_129 (+ ?v_54 (+ ?v_59 (+ ?v_18 (+ ?v_29 (+ ?v_92 (+ ?v_30 (+ ?v_11 (+ ?v_97 (+ ?v_78 (+ ?v_21 (+ ?v_43 (+ ?v_98 (+ ?v_23 (+ ?v_24 (+ ?v_57 (+ ?v_12 ?v_14)))))))))))))))))))))))))))) 1) (<= (+ ?v_99 (+ ?v_132 (+ (* (- 2) x19) (+ ?v_100 (+ ?v_101 (+ ?v_35 (+ ?v_112 (+ ?v_8 (+ ?v_48 (+ ?v_40 (+ ?v_62 (+ ?v_30 (+ ?v_82 (+ ?v_117 (+ ?v_5 (+ (* (- 1) x4) (+ ?v_59 (+ ?v_79 (+ ?v_63 (+ ?v_98 (+ ?v_102 (+ ?v_23 (+ ?v_103 (+ ?v_44 (+ ?v_57 (+ ?v_104 (+ ?v_105 (+ ?v_106 ?v_14)))))))))))))))))))))))))))) 0) (<= (+ (* (- 2) x17) (+ ?v_80 (+ ?v_64 (+ ?v_53 (+ ?v_15 (+ ?v_17 (+ ?v_4 (+ ?v_107 (+ ?v_59 (+ ?v_38 (+ ?v_2 (+ ?v_40 (+ ?v_108 (+ (* 2 x27) (+ ?v_75 (+ ?v_109 (+ ?v_51 (+ ?v_81 (+ ?v_98 (+ ?v_82 (+ ?v_102 (+ ?v_23 (+ ?v_55 (+ ?v_24 (+ ?v_103 (+ ?v_56 (+ ?v_44 (+ ?v_69 (+ ?v_110 ?v_13))))))))))))))))))))))))))))) 0) (<= (+ ?v_58 (+ ?v_36 (+ ?v_46 (+ ?v_91 (+ ?v_111 (+ ?v_112 (+ ?v_50 (+ ?v_88 (+ ?v_1 (+ ?v_107 (+ ?v_61 (+ ?v_108 (+ (* 2 x26) (+ ?v_63 (+ ?v_125 (+ ?v_109 (+ ?v_92 (+ ?v_43 (+ ?v_66 (+ ?v_115 (+ ?v_3 (+ ?v_102 (+ ?v_32 (+ ?v_55 (+ ?v_22 (+ ?v_34 (+ ?v_56 (+ ?v_113 ?v_69)))))))))))))))))))))))))))) (- 1)) (<= (+ ?v_37 (+ ?v_1 (+ ?v_58 (+ ?v_36 (+ ?v_114 (+ ?v_5 (+ ?v_6 (+ ?v_7 (+ ?v_8 (+ ?v_18 (+ ?v_25 (+ ?v_73 (+ ?v_29 (+ ?v_87 (+ ?v_62 (+ ?v_78 (+ ?v_65 (+ ?v_75 (+ ?v_109 (+ ?v_51 (+ ?v_92 (+ ?v_42 (+ ?v_115 (+ ?v_82 (+ ?v_55 (+ ?v_24 (+ ?v_103 (+ ?v_56 (+ ?v_44 (+ ?v_69 ?v_13)))))))))))))))))))))))))))))) 0) (<= (+ ?v_99 (+ ?v_0 (+ ?v_37 (+ ?v_116 (+ ?v_17 (+ ?v_6 (+ ?v_35 (+ ?v_111 (+ ?v_95 (+ ?v_18 (+ ?v_61 (+ ?v_47 (+ ?v_49 (+ ?v_117 (+ ?v_78 (+ ?v_140 (+ ?v_64 (+ ?v_75 (+ ?v_118 (+ ?v_109 (+ ?v_51 (+ (* 3 x33) (+ ?v_115 (+ ?v_102 (+ ?v_56 (+ ?v_68 (+ ?v_69 ?v_57))))))))))))))))))))))))))) 1) (<= (+ ?v_100 (+ ?v_4 (+ ?v_1 (+ ?v_6 (+ ?v_119 (+ ?v_60 (+ ?v_73 (+ ?v_19 (+ ?v_47 (+ ?v_120 (+ ?v_40 (+ ?v_62 (+ ?v_121 (+ ?v_80 (+ ?v_117 (+ ?v_63 (+ ?v_33 (+ ?v_109 (+ ?v_10 (+ ?v_30 (+ ?v_82 (+ ?v_43 (+ ?v_98 (+ ?v_11 (+ ?v_57 (+ ?v_110 (+ ?v_32 (+ ?v_122 (+ ?v_56 ?v_68))))))))))))))))))))))))))))) (- 1)) (<= (+ ?v_0 (+ ?v_36 (+ ?v_45 (+ ?v_1 (+ ?v_7 (+ ?v_8 (+ ?v_2 (+ ?v_87 (+ ?v_62 (+ ?v_92 (+ ?v_64 (+ ?v_50 (+ ?v_82 (+ (* (- 2) x6) (+ ?v_58 (+ ?v_61 (+ ?v_47 (+ ?v_81 (+ ?v_65 (+ ?v_75 (+ ?v_5 (+ (* 2 x35) (+ ?v_134 (+ ?v_117 (+ ?v_109 (+ ?v_31 (+ ?v_110 (+ ?v_122 ?v_104)))))))))))))))))))))))))))) 1) (<= (+ (* (- 3) x36) (+ ?v_100 (+ ?v_0 (+ ?v_16 (+ ?v_45 (+ ?v_72 (+ ?v_4 (+ ?v_1 (+ ?v_8 (+ ?v_60 (+ ?v_123 (+ ?v_124 (+ ?v_117 (+ ?v_29 (+ ?v_87 (+ ?v_125 (+ ?v_109 (+ ?v_42 (+ ?v_43 (+ ?v_31 (+ ?v_76 (+ (* 2 x37) (+ ?v_32 (+ ?v_122 (+ ?v_130 ?v_106))))))))))))))))))))))))) 0) (<= (+ ?v_99 (+ ?v_8 (+ ?v_123 (+ ?v_126 (+ ?v_112 (+ ?v_87 (+ ?v_74 (+ ?v_62 (+ ?v_26 (+ ?v_58 (+ ?v_127 (+ ?v_128 (+ ?v_85 (+ ?v_65 (+ ?v_129 (+ ?v_28 (+ ?v_75 (+ ?v_135 (+ ?v_109 (+ ?v_51 (+ ?v_92 (+ ?v_52 (+ ?v_23 (+ ?v_103 (+ ?v_68 (+ ?v_57 (+ ?v_110 ?v_130))))))))))))))))))))))))))) 1) (<= (+ ?v_131 (+ ?v_37 (+ ?v_7 (+ ?v_8 (+ ?v_127 (+ ?v_95 (+ ?v_9 (+ ?v_18 (+ ?v_61 (+ ?v_123 (+ ?v_29 (+ ?v_75 (+ (* (- 2) x35) (+ ?v_88 (+ ?v_84 (+ ?v_54 (+ ?v_27 (+ ?v_17 (+ ?v_109 (+ ?v_93 (+ ?v_31 (+ ?v_32 (+ ?v_104 (+ ?v_67 ?v_105)))))))))))))))))))))))) (- 1)) (<= (+ ?v_99 (+ ?v_132 (+ ?v_111 (+ (* (- 2) x2) (+ ?v_101 (+ ?v_72 (+ ?v_74 (+ ?v_58 (+ ?v_17 (+ ?v_7 (+ ?v_133 (+ ?v_29 (+ ?v_39 (+ ?v_10 (+ ?v_42 (+ (* 1 x14) (+ ?v_25 (+ ?v_97 (+ ?v_86 (+ ?v_21 (+ ?v_66 (+ ?v_134 (+ ?v_55 (+ ?v_103 (+ (* 2 x41) (+ ?v_57 (+ ?v_104 (+ ?v_56 ?v_106)))))))))))))))))))))))))))) 0) (<= (+ ?v_37 (+ ?v_35 (+ ?v_126 (+ ?v_49 (+ ?v_26 (+ ?v_58 (+ ?v_17 (+ ?v_4 (+ ?v_107 (+ ?v_8 (+ ?v_60 (+ (* 3 x20) (+ ?v_28 (+ ?v_62 (+ ?v_42 (+ ?v_30 (+ ?v_31 (+ ?v_63 (+ ?v_93 (+ ?v_81 (+ ?v_76 (+ ?v_134 (+ ?v_33 (+ ?v_88 (+ ?v_34 (+ ?v_69 (+ ?v_135 (+ ?v_122 (+ ?v_130 ?v_136))))))))))))))))))))))))))))) (- 1)) (<= (+ ?v_137 (+ ?v_15 (+ ?v_37 (+ (* (- 2) x12) (+ ?v_91 (+ ?v_111 (+ ?v_112 (+ ?v_9 (+ ?v_18 (+ ?v_19 (+ ?v_86 (+ (* (- 2) x43) (+ ?v_1 (+ ?v_2 (+ ?v_53 (+ ?v_75 (+ ?v_92 (+ ?v_52 (+ ?v_42 (+ ?v_82 (+ ?v_97 (+ ?v_93 (+ ?v_138 (+ ?v_23 (+ ?v_22 (+ ?v_24 (+ ?v_110 (+ ?v_12 ?v_56)))))))))))))))))))))))))))) 0) (<= (+ ?v_126 (+ ?v_0 (+ ?v_16 (+ ?v_18 (+ ?v_45 (+ ?v_85 (+ (* (- 2) x29) (+ ?v_72 (+ ?v_49 (+ ?v_20 (+ ?v_80 (+ ?v_65 (+ ?v_129 (+ ?v_17 (+ ?v_60 (+ ?v_133 (+ ?v_128 (+ ?v_28 (+ ?v_2 (+ ?v_52 (+ ?v_139 (+ ?v_42 (+ ?v_66 (+ ?v_30 (+ ?v_134 (+ ?v_44 (+ ?v_138 (+ ?v_59 (+ ?v_12 ?v_130))))))))))))))))))))))))))))) 1) (<= (+ ?v_120 (+ ?v_74 (+ ?v_26 (+ ?v_15 (+ ?v_0 (+ ?v_18 (+ ?v_40 (+ ?v_45 (+ ?v_7 (+ ?v_79 (+ (* 2 x2) (+ ?v_19 (+ ?v_62 (+ ?v_10 (+ ?v_42 (+ ?v_118 (+ ?v_65 (+ ?v_88 (+ ?v_54 (+ ?v_24 (+ ?v_57 (+ ?v_12 (+ ?v_67 (+ ?v_105 ?v_113)))))))))))))))))))))))) 0) (<= (+ ?v_71 (+ ?v_72 (+ ?v_80 (+ ?v_74 (+ ?v_15 (+ ?v_0 (+ ?v_1 (+ ?v_107 (+ ?v_7 (+ ?v_60 (+ ?v_9 (+ ?v_62 (+ ?v_66 (+ ?v_22 (+ ?v_103 (+ ?v_110 (+ ?v_135 (+ ?v_140 (+ ?v_63 (+ ?v_12 (+ ?v_98 (+ (* 2 x38) (+ ?v_122 (+ ?v_83 (+ ?v_105 ?v_68))))))))))))))))))))))))) 0) (<= (+ ?v_71 (+ ?v_127 (+ ?v_36 (+ ?v_46 (+ ?v_116 (+ ?v_111 (+ (* (- 1) x20) (+ ?v_80 (+ ?v_107 (+ ?v_60 (+ ?v_73 (+ ?v_61 (+ ?v_2 (+ ?v_29 (+ ?v_86 (+ ?v_10 (+ ?v_79 (+ ?v_53 (+ ?v_63 (+ ?v_118 (+ ?v_3 (+ (* (- 2) x42) (+ ?v_55 (+ ?v_12 (+ ?v_102 (+ (* 2 x44) (+ ?v_105 (* 2 x8)))))))))))))))))))))))))))) 0))))))
(check-sat)
(exit)
